50
17240

460 922
509 999
223 248
501 765
51 616
920 433
670 195
266 348
116 544
743 635
935 575
905 301
838 477
568 342
253 186
277 520
367 264
592 627
852 5
152 444
224 749
542 442
442 680
424 493
316 967
772 955
770 197
442 47
14 470
732 151
907 471
607 616
752 957
424 840
143 912
839 966
635 846
909 372
979 602
18 905
214 282
678 950
886 295
915 711
427 449
704 152
852 54
428 19
605 135
294 153
